param n := 120;
param c := 3000
param : V : p w :=
   0	  86	 433
   1	  40	 260
   2	  80	 307
   3	  88	 493
   4	  97	 252
   5	  36	 255
   6	  47	 415
   7	  40	 280
   8	  19	 305
   9	  68	 457
  10	  68	 253
  11	  12	 290
  12	  50	 491
  13	   6	 251
  14	  35	 258
  15	   7	 375
  16	  37	 254
  17	  87	 371
  18	  52	 402
  19	  58	 289
  20	   5	 309
  21	  87	 410
  22	  19	 275
  23	  47	 315
  24	   4	 393
  25	  62	 275
  26	  19	 332
  27	  85	 462
  28	  26	 259
  29	   6	 279
  30	   5	 414
  31	  17	 254
  32	   6	 332
  33	  72	 355
  34	  95	 312
  35	  59	 333
  36	  84	 474
  37	  90	 258
  38	  69	 268
  39	  99	 420
  40	  79	 282
  41	  78	 298
  42	  38	 453
  43	   9	 272
  44	  63	 275
  45	   8	 408
  46	  19	 289
  47	  90	 303
  48	  53	 411
  49	  49	 260
  50	  78	 329
  51	  35	 363
  52	  27	 303
  53	   3	 334
  54	  72	 447
  55	  39	 255
  56	   9	 298
  57	  48	 471
  58	  48	 256
  59	  21	 273
  60	  30	 499
  61	  69	 250
  62	  98	 251
  63	  87	 424
  64	  19	 277
  65	  48	 299
  66	  70	 465
  67	  37	 257
  68	  73	 278
  69	  75	 373
  70	   5	 269
  71	  57	 358
  72	  66	 494
  73	  26	 250
  74	  46	 256
  75	  94	 413
  76	  17	 281
  77	  51	 306
  78	  21	 462
  79	  54	 257
  80	  67	 281
  81	  39	 435
  82	  51	 280
  83	  61	 285
  84	  27	 480
  85	  74	 250
  86	   7	 270
  87	  96	 389
  88	   6	 271
  89	  94	 340
  90	  96	 462
  91	  40	 254
  92	  38	 284
  93	  91	 469
  94	  90	 259
  95	  33	 272
  96	  41	 351
  97	  78	 291
  98	  47	 358
  99	  38	 389
 100	  16	 268
 101	  43	 343
 102	  81	 383
 103	  21	 282
 104	  92	 335
 105	   7	 394
 106	  16	 288
 107	  42	 318
 108	  59	 393
 109	  47	 258
 110	  51	 349
 111	  14	 482
 112	  86	 257
 113	  52	 261
 114	  67	 363
 115	  43	 282
 116	  56	 355
 117	  25	 423
 118	   5	 264
 119	  25	 313
;

set E :=
   0	   7
   0	   9
   0	  10
   0	  11
   0	  12
   0	  13
   0	  17
   0	  23
   0	  26
   0	  27
   0	  39
   0	  41
   0	  43
   0	  44
   0	  45
   0	  46
   0	  49
   0	  55
   0	  57
   0	  63
   0	  64
   0	  65
   0	  67
   0	  71
   0	  75
   0	  77
   0	  82
   0	  87
   0	  94
   0	  97
   0	 102
   0	 103
   0	 104
   0	 105
   0	 110
   1	   5
   1	   7
   1	   8
   1	  15
   1	  16
   1	  18
   1	  19
   1	  21
   1	  22
   1	  26
   1	  29
   1	  30
   1	  32
   1	  36
   1	  37
   1	  45
   1	  48
   1	  50
   1	  56
   1	  64
   1	  66
   1	  72
   1	  75
   1	  76
   1	  78
   1	  86
   1	  89
   1	  93
   1	  94
   1	  97
   1	  99
   1	 100
   1	 104
   1	 106
   1	 107
   1	 116
   1	 119
   2	   7
   2	  10
   2	  13
   2	  16
   2	  18
   2	  31
   2	  33
   2	  34
   2	  36
   2	  41
   2	  42
   2	  45
   2	  46
   2	  47
   2	  48
   2	  50
   2	  55
   2	  58
   2	  60
   2	  61
   2	  71
   2	  75
   2	  77
   2	  79
   2	  82
   2	  83
   2	  91
   2	  92
   2	  96
   2	 101
   2	 102
   2	 103
   2	 105
   2	 108
   2	 110
   2	 113
   2	 117
   3	   4
   3	   5
   3	   8
   3	   9
   3	  14
   3	  15
   3	  18
   3	  20
   3	  24
   3	  30
   3	  33
   3	  35
   3	  38
   3	  43
   3	  44
   3	  45
   3	  47
   3	  48
   3	  49
   3	  50
   3	  51
   3	  53
   3	  58
   3	  59
   3	  60
   3	  62
   3	  66
   3	  68
   3	  69
   3	  71
   3	  74
   3	  77
   3	  80
   3	  86
   3	  91
   3	  96
   3	  97
   3	  98
   3	 105
   3	 113
   3	 114
   3	 116
   3	 118
   4	   6
   4	  12
   4	  13
   4	  15
   4	  20
   4	  24
   4	  27
   4	  28
   4	  36
   4	  37
   4	  41
   4	  42
   4	  43
   4	  46
   4	  47
   4	  51
   4	  63
   4	  69
   4	  70
   4	  71
   4	  73
   4	  74
   4	  77
   4	  86
   4	  93
   4	 100
   4	 103
   4	 104
   4	 105
   4	 112
   4	 118
   5	   7
   5	  16
   5	  17
   5	  18
   5	  19
   5	  23
   5	  32
   5	  33
   5	  34
   5	  37
   5	  41
   5	  42
   5	  43
   5	  44
   5	  45
   5	  47
   5	  49
   5	  53
   5	  60
   5	  62
   5	  67
   5	  72
   5	  73
   5	  79
   5	  81
   5	  84
   5	  85
   5	  91
   5	  96
   5	 112
   5	 114
   6	   9
   6	  13
   6	  17
   6	  23
   6	  26
   6	  27
   6	  29
   6	  33
   6	  34
   6	  39
   6	  42
   6	  43
   6	  45
   6	  46
   6	  51
   6	  55
   6	  58
   6	  59
   6	  60
   6	  64
   6	  68
   6	  71
   6	  74
   6	  75
   6	  81
   6	  94
   6	  98
   6	 100
   6	 109
   6	 114
   6	 117
   7	   9
   7	  11
   7	  13
   7	  14
   7	  17
   7	  18
   7	  21
   7	  28
   7	  29
   7	  32
   7	  34
   7	  35
   7	  40
   7	  45
   7	  49
   7	  53
   7	  57
   7	  62
   7	  63
   7	  64
   7	  65
   7	  68
   7	  72
   7	  73
   7	  77
   7	  80
   7	  84
   7	  85
   7	  87
   7	  90
   7	  93
   7	  95
   7	  96
   7	  97
   7	  98
   7	 106
   7	 108
   7	 109
   7	 112
   7	 116
   7	 118
   8	  11
   8	  17
   8	  19
   8	  26
   8	  28
   8	  43
   8	  48
   8	  50
   8	  51
   8	  54
   8	  58
   8	  60
   8	  61
   8	  66
   8	  69
   8	  70
   8	  72
   8	  73
   8	  82
   8	  84
   8	  85
   8	  89
   8	  93
   8	  94
   8	  96
   8	  99
   8	 105
   8	 108
   8	 115
   8	 116
   9	  16
   9	  18
   9	  26
   9	  28
   9	  29
   9	  35
   9	  36
   9	  41
   9	  43
   9	  45
   9	  46
   9	  47
   9	  53
   9	  58
   9	  59
   9	  61
   9	  65
   9	  67
   9	  80
   9	  86
   9	  92
   9	  95
   9	  97
   9	 100
   9	 107
   9	 109
   9	 111
   9	 112
   9	 114
   9	 116
   9	 117
  10	  16
  10	  21
  10	  23
  10	  25
  10	  26
  10	  29
  10	  30
  10	  34
  10	  41
  10	  42
  10	  47
  10	  49
  10	  53
  10	  57
  10	  58
  10	  59
  10	  67
  10	  70
  10	  74
  10	  76
  10	  77
  10	  81
  10	  84
  10	  85
  10	  87
  10	  90
  10	  93
  10	  96
  10	  98
  10	 100
  10	 101
  10	 103
  10	 105
  10	 114
  10	 115
  10	 118
  10	 119
  11	  17
  11	  19
  11	  35
  11	  38
  11	  41
  11	  54
  11	  56
  11	  64
  11	  65
  11	  66
  11	  71
  11	  72
  11	  73
  11	  77
  11	  78
  11	  83
  11	  84
  11	  85
  11	  90
  11	  93
  11	  97
  11	 107
  11	 110
  11	 112
  11	 116
  12	  16
  12	  18
  12	  20
  12	  27
  12	  32
  12	  33
  12	  34
  12	  37
  12	  39
  12	  42
  12	  47
  12	  55
  12	  59
  12	  60
  12	  62
  12	  66
  12	  69
  12	  72
  12	  80
  12	  81
  12	  82
  12	  86
  12	  87
  12	  90
  12	  92
  12	  94
  12	  95
  12	  96
  12	  98
  12	 108
  12	 114
  12	 116
  12	 117
  13	  15
  13	  17
  13	  21
  13	  22
  13	  27
  13	  31
  13	  32
  13	  36
  13	  44
  13	  45
  13	  47
  13	  51
  13	  52
  13	  57
  13	  58
  13	  68
  13	  73
  13	  75
  13	  77
  13	  79
  13	  80
  13	  81
  13	  85
  13	  90
  13	  91
  13	  95
  13	  97
  13	  98
  13	 100
  13	 105
  13	 111
  13	 118
  14	  16
  14	  17
  14	  18
  14	  21
  14	  33
  14	  35
  14	  43
  14	  44
  14	  46
  14	  47
  14	  55
  14	  61
  14	  63
  14	  64
  14	  75
  14	  78
  14	  79
  14	  80
  14	  85
  14	  88
  14	  89
  14	  91
  14	  92
  14	  97
  14	 107
  14	 109
  14	 111
  14	 114
  15	  22
  15	  25
  15	  27
  15	  30
  15	  31
  15	  32
  15	  36
  15	  39
  15	  40
  15	  47
  15	  48
  15	  52
  15	  53
  15	  55
  15	  57
  15	  60
  15	  61
  15	  66
  15	  75
  15	  76
  15	  77
  15	  81
  15	  86
  15	  90
  15	  91
  15	  92
  15	  99
  15	 101
  15	 102
  15	 103
  15	 106
  15	 108
  15	 113
  15	 114
  15	 117
  16	  18
  16	  19
  16	  20
  16	  22
  16	  25
  16	  27
  16	  29
  16	  30
  16	  31
  16	  32
  16	  33
  16	  34
  16	  36
  16	  41
  16	  43
  16	  46
  16	  48
  16	  50
  16	  53
  16	  58
  16	  59
  16	  60
  16	  61
  16	  64
  16	  68
  16	  69
  16	  70
  16	  74
  16	  75
  16	  77
  16	  81
  16	  85
  16	  86
  16	  95
  16	  98
  16	  99
  16	 100
  16	 102
  16	 103
  16	 105
  16	 114
  16	 116
  16	 117
  17	  18
  17	  19
  17	  20
  17	  23
  17	  27
  17	  33
  17	  36
  17	  46
  17	  47
  17	  48
  17	  50
  17	  53
  17	  55
  17	  60
  17	  66
  17	  68
  17	  69
  17	  73
  17	  80
  17	  83
  17	  84
  17	  87
  17	  90
  17	  94
  17	  96
  17	  97
  17	  98
  17	  99
  17	 101
  17	 105
  17	 108
  17	 113
  17	 114
  17	 117
  17	 118
  18	  24
  18	  26
  18	  29
  18	  34
  18	  36
  18	  41
  18	  42
  18	  48
  18	  49
  18	  62
  18	  63
  18	  64
  18	  65
  18	  66
  18	  75
  18	  77
  18	  78
  18	  80
  18	  84
  18	  86
  18	  87
  18	  88
  18	  89
  18	  97
  18	 101
  18	 103
  18	 104
  18	 111
  18	 114
  18	 116
  18	 119
  19	  25
  19	  29
  19	  30
  19	  32
  19	  37
  19	  38
  19	  39
  19	  44
  19	  46
  19	  49
  19	  51
  19	  57
  19	  71
  19	  73
  19	  77
  19	  80
  19	  81
  19	  83
  19	  89
  19	  91
  19	  92
  19	  93
  19	  98
  19	  99
  19	 109
  19	 112
  19	 117
  20	  21
  20	  22
  20	  25
  20	  26
  20	  30
  20	  33
  20	  39
  20	  43
  20	  49
  20	  52
  20	  56
  20	  57
  20	  60
  20	  61
  20	  63
  20	  65
  20	  66
  20	  67
  20	  75
  20	  78
  20	  80
  20	  91
  20	  92
  20	  93
  20	  97
  20	 101
  20	 102
  20	 103
  20	 104
  20	 108
  20	 112
  20	 113
  20	 115
  20	 118
  20	 119
  21	  31
  21	  34
  21	  35
  21	  36
  21	  42
  21	  43
  21	  55
  21	  59
  21	  65
  21	  72
  21	  73
  21	  74
  21	  75
  21	  78
  21	  79
  21	  82
  21	  86
  21	  92
  21	  96
  21	  98
  21	 100
  21	 101
  21	 103
  21	 104
  21	 111
  21	 118
  21	 119
  22	  25
  22	  26
  22	  30
  22	  31
  22	  37
  22	  38
  22	  41
  22	  42
  22	  44
  22	  45
  22	  50
  22	  53
  22	  55
  22	  58
  22	  61
  22	  62
  22	  63
  22	  64
  22	  69
  22	  70
  22	  74
  22	  76
  22	  78
  22	  79
  22	  80
  22	  88
  22	  89
  22	  91
  22	  92
  22	  99
  22	 100
  22	 101
  22	 102
  22	 111
  22	 112
  22	 115
  23	  25
  23	  27
  23	  28
  23	  34
  23	  40
  23	  42
  23	  45
  23	  50
  23	  52
  23	  53
  23	  55
  23	  56
  23	  60
  23	  66
  23	  73
  23	  75
  23	  76
  23	  83
  23	  86
  23	  87
  23	  89
  23	  97
  24	  29
  24	  33
  24	  41
  24	  48
  24	  50
  24	  55
  24	  60
  24	  61
  24	  62
  24	  63
  24	  66
  24	  73
  24	  77
  24	  78
  24	  86
  24	  87
  24	  88
  24	  89
  24	  91
  24	  94
  24	  95
  24	 103
  24	 105
  24	 108
  24	 109
  24	 112
  24	 115
  24	 119
  25	  34
  25	  43
  25	  47
  25	  48
  25	  49
  25	  51
  25	  53
  25	  57
  25	  58
  25	  60
  25	  64
  25	  66
  25	  70
  25	  72
  25	  73
  25	  74
  25	  75
  25	  77
  25	  82
  25	  85
  25	  86
  25	  87
  25	  94
  25	  95
  25	  98
  25	 101
  25	 104
  25	 105
  25	 106
  25	 108
  25	 113
  25	 116
  25	 119
  26	  36
  26	  37
  26	  41
  26	  42
  26	  43
  26	  44
  26	  47
  26	  48
  26	  49
  26	  59
  26	  64
  26	  66
  26	  70
  26	  76
  26	  84
  26	  87
  26	  88
  26	  89
  26	  92
  26	  95
  26	  99
  26	 102
  26	 103
  26	 104
  26	 105
  26	 106
  26	 107
  26	 109
  26	 113
  26	 114
  26	 119
  27	  28
  27	  33
  27	  36
  27	  42
  27	  50
  27	  53
  27	  54
  27	  59
  27	  60
  27	  69
  27	  73
  27	  75
  27	  76
  27	  77
  27	  78
  27	  84
  27	  87
  27	  90
  27	  92
  27	  99
  27	 104
  27	 106
  27	 108
  27	 111
  27	 113
  27	 117
  27	 118
  27	 119
  28	  33
  28	  35
  28	  36
  28	  38
  28	  40
  28	  42
  28	  45
  28	  46
  28	  51
  28	  52
  28	  59
  28	  60
  28	  65
  28	  74
  28	  76
  28	  77
  28	  79
  28	  83
  28	  85
  28	  87
  28	  89
  28	  91
  28	  94
  28	 109
  28	 118
  29	  32
  29	  34
  29	  40
  29	  44
  29	  49
  29	  50
  29	  52
  29	  53
  29	  54
  29	  60
  29	  61
  29	  63
  29	  78
  29	  82
  29	  88
  29	  90
  29	  97
  29	 105
  29	 106
  29	 114
  29	 115
  29	 118
  30	  33
  30	  34
  30	  38
  30	  39
  30	  41
  30	  46
  30	  47
  30	  48
  30	  49
  30	  53
  30	  55
  30	  60
  30	  64
  30	  65
  30	  67
  30	  74
  30	  75
  30	  79
  30	  84
  30	  90
  30	  94
  30	  97
  30	 100
  30	 101
  30	 102
  30	 105
  30	 107
  30	 111
  30	 112
  30	 119
  31	  32
  31	  34
  31	  41
  31	  48
  31	  49
  31	  50
  31	  53
  31	  54
  31	  56
  31	  60
  31	  64
  31	  65
  31	  76
  31	  77
  31	  78
  31	  82
  31	  85
  31	  89
  31	  90
  31	  92
  31	  93
  31	  96
  31	  97
  31	 100
  31	 101
  31	 104
  31	 105
  31	 106
  31	 108
  31	 109
  31	 119
  32	  33
  32	  44
  32	  46
  32	  50
  32	  53
  32	  54
  32	  57
  32	  60
  32	  61
  32	  64
  32	  66
  32	  67
  32	  73
  32	  74
  32	  75
  32	  77
  32	  81
  32	  87
  32	  96
  32	 101
  32	 104
  32	 105
  32	 108
  32	 109
  32	 111
  32	 114
  32	 117
  33	  34
  33	  39
  33	  43
  33	  50
  33	  55
  33	  58
  33	  63
  33	  64
  33	  70
  33	  72
  33	  73
  33	  74
  33	  75
  33	  77
  33	  81
  33	  86
  33	  87
  33	  98
  33	  99
  33	 110
  33	 112
  33	 115
  33	 118
  33	 119
  34	  41
  34	  43
  34	  44
  34	  47
  34	  49
  34	  52
  34	  56
  34	  64
  34	  65
  34	  69
  34	  71
  34	  76
  34	  84
  34	  85
  34	  86
  34	  97
  34	 102
  34	 105
  34	 109
  34	 113
  34	 114
  35	  38
  35	  40
  35	  41
  35	  48
  35	  50
  35	  55
  35	  59
  35	  60
  35	  63
  35	  67
  35	  69
  35	  70
  35	  71
  35	  79
  35	  80
  35	  82
  35	  83
  35	  85
  35	  92
  35	  98
  35	 103
  35	 105
  35	 112
  35	 114
  35	 116
  35	 119
  36	  37
  36	  38
  36	  43
  36	  44
  36	  53
  36	  57
  36	  60
  36	  63
  36	  69
  36	  71
  36	  88
  36	  90
  36	  92
  36	  93
  36	  94
  36	 100
  36	 103
  36	 104
  36	 105
  36	 114
  37	  41
  37	  42
  37	  49
  37	  50
  37	  51
  37	  52
  37	  53
  37	  62
  37	  66
  37	  67
  37	  68
  37	  75
  37	  77
  37	  79
  37	  95
  37	  97
  37	  98
  37	 101
  37	 103
  37	 104
  37	 105
  37	 106
  37	 107
  37	 108
  37	 109
  37	 110
  37	 111
  37	 113
  37	 116
  37	 118
  37	 119
  38	  40
  38	  41
  38	  44
  38	  47
  38	  49
  38	  52
  38	  56
  38	  57
  38	  58
  38	  68
  38	  71
  38	  75
  38	  96
  38	  99
  38	 101
  38	 103
  38	 104
  38	 108
  38	 114
  38	 116
  38	 119
  39	  42
  39	  45
  39	  46
  39	  50
  39	  55
  39	  56
  39	  58
  39	  59
  39	  62
  39	  67
  39	  69
  39	  74
  39	  78
  39	  79
  39	  81
  39	  82
  39	  86
  39	  87
  39	  88
  39	  92
  39	  93
  39	  94
  39	  99
  39	 102
  39	 114
  39	 118
  40	  50
  40	  51
  40	  52
  40	  53
  40	  57
  40	  58
  40	  60
  40	  61
  40	  64
  40	  65
  40	  68
  40	  70
  40	  72
  40	  75
  40	  76
  40	  77
  40	  80
  40	  95
  40	  99
  40	 103
  40	 104
  40	 107
  40	 108
  40	 110
  40	 113
  40	 114
  40	 118
  41	  62
  41	  67
  41	  68
  41	  70
  41	  73
  41	  74
  41	  76
  41	  77
  41	  79
  41	  81
  41	  83
  41	  85
  41	  86
  41	  87
  41	  94
  41	  97
  41	  98
  41	 101
  41	 103
  41	 106
  41	 109
  41	 111
  41	 113
  41	 118
  41	 119
  42	  43
  42	  48
  42	  49
  42	  53
  42	  54
  42	  55
  42	  57
  42	  63
  42	  64
  42	  65
  42	  66
  42	  67
  42	  70
  42	  72
  42	  89
  42	  90
  42	  93
  42	  95
  42	 105
  42	 106
  42	 107
  42	 109
  42	 119
  43	  44
  43	  48
  43	  51
  43	  55
  43	  56
  43	  62
  43	  66
  43	  67
  43	  68
  43	  76
  43	  84
  43	  91
  43	  96
  43	  99
  43	 100
  43	 101
  43	 103
  43	 105
  43	 107
  43	 108
  43	 117
  43	 118
  44	  45
  44	  54
  44	  58
  44	  61
  44	  63
  44	  65
  44	  66
  44	  67
  44	  70
  44	  71
  44	  74
  44	  78
  44	  81
  44	  83
  44	  84
  44	  89
  44	  90
  44	  91
  44	  93
  44	 100
  44	 102
  44	 103
  44	 104
  44	 106
  44	 108
  44	 110
  44	 116
  44	 118
  44	 119
  45	  52
  45	  55
  45	  56
  45	  58
  45	  59
  45	  60
  45	  64
  45	  66
  45	  71
  45	  77
  45	  78
  45	  81
  45	  82
  45	  84
  45	  91
  45	  94
  45	  95
  45	  98
  45	  99
  45	 100
  45	 102
  45	 105
  45	 106
  45	 110
  45	 112
  45	 115
  46	  51
  46	  53
  46	  55
  46	  64
  46	  71
  46	  72
  46	  74
  46	  76
  46	  80
  46	  90
  46	  92
  46	  95
  46	  97
  46	 100
  46	 110
  46	 113
  46	 117
  46	 118
  47	  52
  47	  53
  47	  54
  47	  55
  47	  57
  47	  62
  47	  65
  47	  66
  47	  69
  47	  72
  47	  73
  47	  74
  47	  76
  47	  80
  47	  81
  47	  91
  47	  93
  47	  94
  47	  95
  47	  99
  47	 106
  47	 111
  47	 112
  47	 113
  47	 119
  48	  51
  48	  53
  48	  54
  48	  63
  48	  73
  48	  75
  48	  78
  48	  86
  48	  89
  48	  90
  48	  92
  48	  96
  48	  97
  48	 101
  48	 106
  48	 109
  48	 111
  48	 113
  48	 114
  48	 115
  48	 118
  48	 119
  49	  51
  49	  58
  49	  63
  49	  66
  49	  69
  49	  74
  49	  77
  49	  78
  49	  80
  49	  81
  49	  83
  49	  85
  49	  88
  49	  91
  49	  95
  49	  98
  49	 104
  49	 105
  49	 107
  49	 108
  49	 109
  49	 110
  49	 112
  49	 114
  49	 118
  50	  57
  50	  59
  50	  60
  50	  61
  50	  63
  50	  69
  50	  79
  50	  90
  50	  94
  50	  95
  50	  97
  50	 100
  50	 102
  50	 107
  50	 112
  50	 116
  50	 117
  50	 119
  51	  55
  51	  56
  51	  58
  51	  59
  51	  61
  51	  62
  51	  63
  51	  69
  51	  71
  51	  74
  51	  79
  51	  83
  51	  85
  51	  87
  51	  90
  51	  98
  51	 102
  51	 104
  51	 105
  51	 106
  51	 107
  51	 110
  51	 112
  51	 117
  52	  65
  52	  67
  52	  70
  52	  75
  52	  84
  52	  85
  52	  91
  52	  92
  52	  94
  52	  95
  52	  97
  52	 101
  52	 103
  52	 104
  52	 109
  52	 111
  52	 112
  52	 114
  53	  56
  53	  64
  53	  72
  53	  74
  53	  75
  53	  80
  53	  83
  53	 101
  53	 104
  53	 106
  53	 107
  53	 119
  54	  57
  54	  62
  54	  65
  54	  75
  54	  77
  54	  86
  54	  87
  54	  88
  54	  89
  54	  91
  54	  98
  54	 100
  54	 102
  54	 104
  54	 108
  54	 111
  54	 112
  54	 114
  54	 117
  55	  58
  55	  65
  55	  67
  55	  70
  55	  74
  55	  83
  55	  84
  55	  90
  55	  95
  55	  99
  55	 101
  55	 103
  55	 109
  55	 110
  55	 117
  56	  79
  56	  80
  56	  82
  56	  83
  56	  89
  56	  90
  56	  91
  56	  92
  56	  96
  56	 107
  56	 108
  56	 109
  56	 111
  57	  67
  57	  69
  57	  72
  57	  81
  57	  85
  57	  92
  57	  93
  57	  95
  57	 101
  57	 110
  57	 111
  57	 113
  57	 117
  57	 119
  58	  64
  58	  66
  58	  67
  58	  75
  58	  78
  58	  79
  58	  81
  58	  85
  58	  92
  58	  93
  58	  94
  58	 102
  58	 106
  58	 107
  59	  66
  59	  67
  59	  68
  59	  69
  59	  74
  59	  75
  59	  82
  59	  84
  59	  89
  59	  96
  59	 103
  59	 111
  59	 112
  59	 115
  60	  65
  60	  66
  60	  67
  60	  76
  60	  81
  60	 105
  60	 108
  60	 110
  60	 113
  60	 114
  61	  63
  61	  67
  61	  70
  61	  72
  61	  73
  61	  76
  61	  80
  61	  81
  61	  85
  61	  86
  61	  87
  61	  90
  61	  98
  61	  99
  61	 105
  61	 107
  61	 108
  61	 111
  61	 117
  61	 119
  62	  63
  62	  64
  62	  68
  62	  69
  62	  70
  62	  78
  62	  80
  62	  81
  62	  85
  62	  87
  62	  94
  62	  95
  62	  97
  62	  99
  62	 100
  62	 101
  62	 102
  62	 104
  62	 107
  62	 109
  62	 112
  62	 113
  62	 118
  63	  67
  63	  68
  63	  78
  63	  83
  63	  85
  63	  88
  63	  89
  63	  90
  63	  95
  63	 101
  63	 102
  63	 104
  63	 108
  63	 119
  64	  68
  64	  72
  64	  78
  64	  79
  64	  85
  64	  87
  64	  89
  64	 100
  64	 104
  64	 105
  64	 108
  64	 110
  64	 111
  64	 113
  64	 116
  64	 117
  65	  70
  65	  72
  65	  75
  65	  78
  65	  80
  65	  81
  65	  87
  65	  88
  65	  89
  65	  92
  65	  94
  65	  95
  65	  96
  65	  97
  65	  99
  65	 100
  65	 104
  65	 105
  65	 112
  65	 116
  65	 117
  65	 118
  66	  70
  66	  78
  66	  79
  66	  80
  66	  81
  66	  84
  66	  95
  66	  96
  66	  98
  66	 103
  66	 110
  66	 112
  67	  73
  67	  80
  67	  83
  67	  85
  67	  87
  67	  90
  67	  91
  67	  95
  67	  98
  67	 105
  67	 106
  67	 107
  67	 111
  67	 115
  67	 119
  68	  71
  68	  72
  68	  74
  68	  78
  68	  81
  68	  88
  68	  90
  68	  91
  68	  92
  68	  94
  68	 100
  68	 101
  68	 102
  68	 105
  68	 108
  68	 112
  68	 114
  68	 119
  69	  73
  69	  77
  69	  78
  69	  79
  69	  81
  69	  83
  69	  88
  69	  91
  69	 103
  69	 108
  69	 112
  69	 119
  70	  71
  70	  75
  70	  76
  70	  81
  70	  84
  70	  88
  70	  91
  70	  95
  70	  98
  70	  99
  70	 106
  70	 109
  70	 110
  70	 114
  70	 116
  71	  73
  71	  74
  71	  76
  71	  77
  71	  79
  71	  80
  71	  81
  71	  96
  71	  97
  71	 100
  71	 105
  71	 109
  71	 111
  71	 118
  72	  73
  72	  75
  72	  85
  72	  87
  72	  99
  72	 108
  72	 117
  73	  75
  73	  77
  73	  79
  73	  80
  73	  81
  73	  82
  73	  84
  73	  87
  73	  92
  73	  98
  73	 110
  73	 114
  73	 117
  74	  81
  74	  85
  74	  95
  74	  97
  74	  99
  74	 102
  74	 104
  74	 105
  74	 107
  74	 108
  74	 109
  74	 112
  74	 113
  74	 116
  75	  78
  75	  82
  75	  86
  75	  88
  75	  89
  75	  90
  75	  91
  75	  93
  75	  95
  75	 103
  75	 104
  75	 107
  75	 108
  75	 111
  75	 113
  75	 118
  76	  86
  76	  93
  76	  99
  76	 103
  76	 105
  76	 108
  76	 114
  76	 116
  76	 117
  76	 119
  77	  83
  77	  84
  77	  87
  77	  88
  77	  92
  77	  97
  77	 100
  77	 102
  77	 103
  77	 106
  77	 112
  77	 119
  78	  81
  78	  82
  78	  83
  78	  85
  78	  86
  78	  89
  78	  92
  78	  99
  78	 100
  78	 103
  78	 105
  78	 107
  78	 110
  78	 112
  78	 115
  79	  84
  79	  89
  79	  93
  79	  94
  79	 102
  79	 103
  79	 106
  79	 114
  79	 118
  79	 119
  80	  84
  80	  86
  80	  87
  80	  89
  80	  91
  80	  94
  80	  99
  80	 101
  80	 102
  80	 104
  80	 113
  80	 116
  80	 118
  81	  82
  81	  91
  81	  92
  81	  93
  81	  95
  81	  96
  81	  97
  81	 100
  81	 102
  81	 109
  81	 110
  81	 113
  81	 115
  81	 116
  81	 117
  81	 119
  82	  83
  82	  91
  82	  92
  82	  94
  82	  98
  82	 102
  82	 106
  82	 113
  82	 117
  82	 118
  83	  84
  83	  99
  83	 100
  83	 104
  83	 105
  83	 112
  83	 115
  83	 119
  84	  94
  84	  97
  84	 106
  84	 107
  84	 111
  84	 112
  84	 113
  84	 114
  85	  86
  85	  95
  85	  97
  85	  98
  85	 101
  85	 104
  85	 112
  85	 116
  85	 117
  86	  87
  86	  89
  86	  91
  86	  93
  86	  94
  86	  96
  86	  99
  86	 111
  86	 115
  86	 119
  87	  92
  87	  94
  87	 103
  87	 104
  87	 107
  87	 108
  87	 112
  87	 116
  88	  93
  88	  98
  88	  99
  88	 103
  88	 105
  88	 106
  88	 108
  88	 113
  88	 115
  89	  90
  89	  91
  89	  96
  89	  98
  89	 108
  89	 109
  89	 110
  89	 115
  90	  97
  90	 103
  90	 105
  90	 106
  90	 107
  90	 108
  90	 109
  90	 110
  90	 111
  90	 112
  90	 113
  90	 119
  91	  92
  91	  93
  91	  95
  91	 100
  91	 102
  91	 107
  91	 113
  91	 114
  91	 118
  92	  93
  92	 102
  92	 103
  92	 110
  92	 111
  92	 113
  92	 115
  92	 119
  93	  94
  93	  95
  93	  98
  93	  99
  93	 100
  93	 101
  93	 102
  93	 103
  93	 104
  93	 106
  93	 108
  93	 109
  93	 110
  93	 112
  93	 115
  93	 119
  94	  95
  94	  99
  94	 102
  94	 105
  94	 113
  94	 114
  94	 116
  95	 104
  95	 106
  95	 108
  95	 111
  95	 112
  95	 115
  96	 101
  96	 103
  96	 105
  96	 107
  96	 109
  96	 110
  96	 112
  96	 113
  96	 115
  96	 116
  96	 117
  97	 106
  97	 112
  97	 116
  97	 119
  98	 106
  98	 109
  98	 114
  98	 116
  98	 117
  98	 118
  99	 100
  99	 104
  99	 105
  99	 106
  99	 107
  99	 111
  99	 112
  99	 115
  99	 116
 100	 104
 100	 105
 100	 107
 100	 108
 100	 118
 101	 103
 101	 105
 101	 107
 101	 108
 101	 110
 101	 111
 101	 112
 101	 115
 101	 117
 101	 118
 101	 119
 102	 103
 102	 104
 102	 109
 102	 117
 102	 118
 102	 119
 103	 106
 103	 110
 103	 114
 103	 115
 104	 106
 104	 107
 104	 111
 104	 114
 104	 118
 105	 106
 105	 116
 105	 117
 105	 118
 106	 108
 106	 109
 106	 110
 106	 111
 106	 113
 107	 109
 107	 110
 107	 115
 107	 116
 107	 118
 108	 113
 108	 115
 108	 116
 108	 118
 109	 111
 109	 114
 109	 118
 110	 111
 110	 113
 110	 114
 110	 118
 111	 112
 111	 117
 111	 118
 112	 114
 112	 116
 114	 115
 114	 116
 114	 119
 116	 119
;
